Minimize
  obj: x0 + x1 + x2 + x3 + x4 + x5 + x6

Subject To
  c0: x0 + x1 + x5 = 35
  c1: x0 + x2 + x3 = 37
  c2: x0 + x1 + x2 + x3 + x5 + x6 = 70
  c3: x1 + x3 + x5 = 49
  c4: x0 + x1 + x3 + x5 + x6 = 57
  c5: x0 + x1 + x2 + x3 + x4 + x5 + x6 = 89
  c6: x1 + x2 + x3 + x4 + x6 = 74

Bounds
  x0 >= 0
  x1 >= 0
  x2 >= 0
  x3 >= 0
  x4 >= 0
  x5 >= 0
  x6 >= 0

Generals
  x0 x1 x2 x3 x4 x5 x6

End
